(set-option :produce-models true)
(set-logic QF_UF)
(declare-fun p8() Bool)
(declare-fun p17() Bool)
(declare-fun p12() Bool)
(declare-fun p18() Bool)
(declare-fun p3() Bool)
(declare-fun p0() Bool)
(declare-fun p20() Bool)
(declare-fun p22() Bool)
(declare-fun p21() Bool)
(declare-fun p4() Bool)
(declare-fun p7() Bool)
(declare-fun p1() Bool)
(declare-fun p14() Bool)
(declare-fun p23() Bool)
(declare-fun p15() Bool)
(declare-fun p6() Bool)
(declare-fun p24() Bool)
(declare-fun p5() Bool)
(declare-fun p9() Bool)
(declare-fun p13() Bool)
(declare-fun p16() Bool)
(declare-fun p19() Bool)
(declare-fun p10() Bool)
(declare-fun p2() Bool)
(declare-fun p11() Bool)
(assert
(and (or p8 (not p17) (not p12)) (or p18 (not p3) (not p0)) (or (not p20) (not p22) (not p21)) (or (not p21) p12 p4) (or p8 p7 p1) (or (not p14) p12 p4) (or (not p23) (not p15) (not p0)) (or p1 p18 p15) (or (not p3) (not p6) (not p21)) (or (not p22) (not p21) (not p18)) (or (not p21) p20 p14) (or p24 p5 p7) (or (not p18) p4 p8) (or p15 (not p9) p13) (or p16 (not p20) p4) (or (not p19) p5 (not p4)) (or (not p14) (not p18) p10) (or (not p4) (not p6) p16) (or p18 (not p12) (not p23)) (or (not p16) p0 (not p2)) (or p23 p11 p7) (or (not p24) p3 (not p1)) (or p19 (not p5) (not p18)) (or p23 p14 p5) (or (not p3) p13 (not p3)) (or (not p21) p15 (not p7)) (or (not p16) (not p4) p22) (or p16 (not p12) p13) (or p12 p6 p6) (or p10 p17 p16) (or p13 (not p11) (not p21)) (or p10 (not p5) (not p2)) (or (not p15) (not p21) p12) (or (not p24) p3 (not p9)) (or p15 p2 p21) (or (not p12) p0 (not p21)) (or (not p8) p21 p0) (or p22 p1 (not p23)) (or (not p13) (not p13) p18) (or p5 (not p7) p23) (or p13 (not p23) (not p3)) (or p11 (not p15) p14) (or (not p23) p2 p18) (or (not p11) (not p24) p10) (or p23 p24 (not p3)) (or (not p9) p14 (not p9)) (or p7 p19 p20) (or p19 (not p9) p14) (or p19 (not p14) p16) (or p9 p21 (not p20)) (or (not p18) p15 (not p16)) (or (not p3) p11 (not p22)) (or (not p13) (not p8) p2) (or (not p10) (not p5) (not p3)) (or p4 (not p10) p17) (or (not p15) (not p22) p22) (or (not p24) p19 p15) (or (not p18) p17 p17) (or p16 (not p13) p12) (or p0 (not p24) p4) (or p20 p19 (not p15)) (or p12 (not p18) (not p24)) (or (not p14) p1 (not p10)) (or p13 p7 (not p21)) (or p3 p19 (not p6)) (or (not p15) (not p19) p7) (or (not p12) p15 (not p12)) (or p11 (not p16) p24) (or p11 p8 p22) (or (not p22) (not p7) p22) (or (not p2) p6 (not p11)) (or p8 (not p0) p7) (or p2 p14 p7) (or (not p16) p15 p19) (or p17 (not p19) p16) (or (not p11) (not p7) p21) (or p15 (not p2) (not p18)) (or (not p10) p4 p10) (or p20 p14 p19) (or p8 (not p15) (not p6)) (or p11 p10 (not p3)) (or p21 p15 (not p19)) (or p3 p22 (not p9)) (or p4 (not p18) (not p3)) (or p8 p14 (not p9)) (or (not p4) p1 (not p1)) (or (not p3) (not p20) (not p5)) (or (not p7) p15 p15) (or p17 (not p2) (not p8)) (or (not p5) (not p22) (not p16)) (or (not p4) p18 p6) (or p18 p11 (not p1)) (or p1 (not p5) (not p0)) (or (not p1) (not p7) p5) (or (not p19) (not p15) p12) (or (not p16) p7 p13) (or p23 p0 p13) (or p0 p21 (not p14)) (or (not p9) p21 p1) (or p11 (not p22) (not p24)) (or p12 (not p1) (not p3)) (or p17 (not p24) (not p14)) (or p10 p22 p14) (or p1 (not p20) (not p8)) (or p8 (not p17) (not p1)) (or (not p7) p9 (not p17)) (or (not p9) p4 p24))
)
(check-sat)
(get-model)
